c read Graph
c width = 275
c time = 147 ms
c width = 22
c time = 333 ms
c width = 21
c time = 598 ms
c width = 20
c time = 2391 ms
c width = 19
c time = 2440 ms
c width = 19
c time = 4961 ms
s td 232 20 288
b 1 1 2 19
b 2 2 3 19 20
b 3 16 17 35 36
b 4 3 19 20 37
b 5 16 35 36 54
b 6 235 253 254 272
b 7 252 269 270 287
b 8 235 254 272 273
b 9 252 269 286 287
b 10 3 4 5 22
b 11 3 5 21 22 38 55
b 12 5 21 22 38 40 55 57
b 13 5 22 38 40 55 57 74
b 14 5 22 40 55 57 74 91
b 15 5 22 24 40 41 57 74 91
b 16 5 24 40 41 57 59 74 76 91
b 17 5 24 41 57 59 74 76 91 93
b 18 5 24 41 59 74 76 91 93 110
b 19 74 91 92 93 110
b 20 5 24 41 43 59 60 76 91 93 110
b 21 24 41 42 43 60
b 22 5 24 43 59 60 76 79 91 93 97 110 114 129 131 148
b 23 59 60 76 79 93 95 97 110 114 129 131 148
b 24 59 60 76 78 79 95 97 114
b 25 78 95 96 97 114
b 26 59 76 77 78 95
b 27 76 93 95 110 112 114 129 131 148
b 28 93 110 111 112 129
b 29 76 93 94 95 112
b 30 112 129 130 131 148
b 31 95 112 113 114 131
b 32 5 24 43 60 79 91 97 110 114 129 131 148 167 185 204 223 242 261 278
b 33 5 24 43 60 79 97 114 131 133 148 151 167 168 185 204 223 242 261 278
b 34 5 24 43 60 79 97 114 133 151 168 170 185 187 204 223 242 261 278
b 35 5 24 43 60 79 97 98 114 117 133 136 151 153 170 187 204 223 242 261 278
b 36 97 98 114 117 133 134 136 151 153 170
b 37 117 134 135 136 153
b 38 134 151 152 153 170
b 39 97 98 114 116 117 133 134
b 40 97 114 115 116 133
b 41 5 24 43 60 79 98 117 136 153 170 187 189 204 208 223 225 242 261 278
b 42 170 187 189 204 206 208 223 225 242
b 43 189 206 207 208 225
b 44 187 204 205 206 223
b 45 170 187 188 189 206
b 46 206 223 224 225 242
b 47 5 24 43 60 62 79 98 117 136 153 170 189 208 225 242 261 278
b 48 5 24 43 62 79 81 98 117 136 153 170 189 208 225 242 261 278
b 49 5 9 24 28 43 47 62 64 81 98 117 136 153 170 189 208 225 242 261 278
b 50 5 9 24 28 43 45 47 62 64 81
b 51 5 9 24 26 28 43 45 62
b 52 26 43 44 45 62
b 53 9 26 27 28 45
b 54 5 7 9 24 26 43
b 55 5 6 7 24
b 56 7 24 25 26 43
b 57 7 8 9 26
b 58 28 45 46 47 64
b 59 45 62 63 64 81
b 60 62 79 80 81 98
b 61 43 60 61 62 79
b 62 168 185 186 187 204
b 63 151 168 169 170 187
b 64 114 131 133 148 150 151 167 168
b 65 131 148 149 150 167
b 66 114 131 132 133 150
b 67 91 110 129 148 167 185 201 202 204 223 242 261 278
b 68 91 110 129 148 163 167 182 185 201 202 204 223 242 261 278
b 69 91 110 129 148 163 165 167 182 185 201 202
b 70 148 165 167 182 184 185 201 202
b 71 148 165 166 167 184
b 72 165 182 183 184 201
b 73 91 110 129 146 148 163 165 182
b 74 129 146 147 148 165
b 75 146 163 164 165 182
b 76 91 110 127 129 146 163
b 77 91 109 110 127
b 78 127 145 146 163
b 79 110 127 128 129 146
b 80 163 182 185 201 202 204 223 240 242 257 261 274 278
b 81 223 240 242 257 259 261 274 278
b 82 240 257 259 274 276 278
b 83 259 276 277 278
b 84 257 274 275 276
b 85 240 257 258 259 276
b 86 242 259 260 261 278
b 87 223 240 241 242 259
b 88 163 182 185 201 202 204 221 223 240 257 274
b 89 185 202 203 204 221
b 90 204 221 222 223 240
b 91 163 182 201 202 221 238 240 257 274
b 92 163 182 201 202 219 221 238 257 274
b 93 202 219 220 221 238
b 94 163 182 201 219 235 236 238 257 274
b 95 219 235 236 238 255 257 274
b 96 235 236 255 273 274
b 97 235 236 254 255 273
b 98 219 236 237 238 255
b 99 238 255 256 257 274
b 100 163 182 201 218 219 235 236
b 101 163 182 199 201 218 235
b 102 199 217 218 235
b 103 182 199 200 201 218
b 104 163 181 182 199
b 105 221 238 239 240 257
b 106 57 74 75 76 93
b 107 40 57 58 59 76
b 108 5 22 23 24 41
b 109 55 73 74 91
b 110 38 55 56 57 74
b 111 21 38 39 40 57
b 112 3 21 37 38 55
b 113 3 20 21 37 38
b 114 9 28 47 66 85 102 119 121 136 140 155 157 174 191 208 225 242 261 278
b 115 9 28 47 64 66 81 85 98 102 117 119 136 153 170 189 208 225 242 261 278
b 116 9 28 47 66 85 102 119 136 153 155 170 174 189 191 208 225 242 261 278
b 117 47 64 66 81 85 98 100 102 117 119 136
b 118 81 98 99 100 117
b 119 47 64 66 81 83 85 100 102 119
b 120 66 83 84 85 102
b 121 47 64 65 66 83
b 122 83 100 101 102 119
b 123 64 81 82 83 100
b 124 100 117 118 119 136
b 125 9 28 47 66 85 102 121 140 157 159 161 174 178 180 191 208 225 242 261 278
b 126 9 28 47 66 85 89 102 106 108 121 123 140 159 161 178 180
b 127 89 106 108 123 140 142 159 161 178 180
b 128 123 140 141 142 159
b 129 142 159 160 161 178
b 130 89 106 108 123 125 142 161 180
b 131 106 123 124 125 142
b 132 108 125 142 144 161 180
b 133 125 142 143 144 161
b 134 108 125 126 144
b 135 144 161 162 180
b 136 89 106 107 108 125
b 137 9 28 47 66 68 85 87 89 102 106 108 121 123 140
b 138 9 28 47 49 66 68 85 87 89 106 108
b 139 9 13 28 32 47 49 66 68 87 89 106 108
b 140 9 13 28 30 32 47 49 66
b 141 30 47 48 49 66
b 142 9 11 13 28 30 47
b 143 9 10 11 28
b 144 11 28 29 30 47
b 145 11 12 13 30
b 146 13 30 31 32 49
b 147 13 32 49 68 70 87 89 106 108
b 148 70 87 88 89 106
b 149 13 32 49 51 68 70 87 89 108
b 150 13 32 51 70 72 89 108
b 151 72 89 90 108
b 152 13 15 32 51 70 72 89
b 153 13 14 15 32
b 154 15 32 51 53 70 72 89
b 155 53 70 71 72 89
b 156 15 32 34 51 53 70 72
b 157 15 32 33 34 51
b 158 15 34 53 54 72
b 159 15 16 34 53 54
b 160 16 34 35 53 54
b 161 34 51 52 53 70
b 162 51 68 69 70 87
b 163 32 49 50 51 68
b 164 49 66 67 68 85
b 165 68 85 87 102 104 106 121 123 140
b 166 85 102 103 104 121
b 167 104 121 122 123 140
b 168 68 85 86 87 104
b 169 87 104 105 106 123
b 170 140 157 159 161 174 178 180 191 208 225 227 242 246 261 265 278 282
b 171 140 157 159 161 174 178 180 191 195 208 212 227 229 246 265 282
b 172 161 178 180 195 197 212 229 246 265 282
b 173 178 180 195 197 212 229 246 248 265 282
b 174 178 180 195 197 212 229 231 248 265 282
b 175 178 180 195 197 212 214 231 248 265 282
b 176 178 195 196 197 214
b 177 180 197 214 231 248 265 282 284
b 178 265 282 283 284
b 179 180 197 214 216 231 248 265 284
b 180 180 197 198 216
b 181 197 214 216 231 248 265 267 284
b 182 248 265 266 267 284
b 183 197 214 216 231 233 248 267 284
b 184 214 216 231 233 248 250 267 284
b 185 231 248 249 250 267
b 186 216 233 250 267 284 286
b 187 267 284 285 286
b 188 216 233 250 267 268 286
b 189 216 233 250 252 268 286
b 190 216 233 234 252
b 191 233 250 251 252 268 286
b 192 251 252 268 269 286
b 193 214 231 232 233 250
b 194 197 214 215 216 233
b 195 195 212 213 214 231
b 196 212 229 230 231 248
b 197 229 246 247 248 265
b 198 161 178 179 180 197
b 199 140 157 159 174 178 191 193 195 208 212 227 229 246
b 200 140 157 159 174 176 178 193 195 212
b 201 157 174 175 176 193
b 202 140 157 158 159 176
b 203 159 176 177 178 195
b 204 176 193 194 195 212
b 205 174 191 193 208 210 212 227 229 246
b 206 174 191 192 193 210
b 207 193 210 211 212 229
b 208 191 208 209 210 227
b 209 210 227 228 229 246
b 210 208 225 227 242 244 246 261 265 278 282
b 211 225 242 243 244 261
b 212 208 225 226 227 244
b 213 227 244 246 261 263 265 278 282
b 214 246 263 264 265 282
b 215 244 261 263 278 280 282
b 216 263 280 281 282
b 217 244 261 262 263 280
b 218 261 278 279 280
b 219 227 244 245 246 263
b 220 102 119 121 136 138 140 155 157 174
b 221 138 155 156 157 174
b 222 119 136 137 138 155
b 223 121 138 139 140 157
b 224 102 119 120 121 138
b 225 136 153 155 170 172 174 189 191 208
b 226 155 172 173 174 191
b 227 153 170 171 172 189
b 228 136 153 154 155 172
b 229 172 189 190 191 208
b 230 270 287 288
b 231 253 271 272
b 232 17 18 36
1 2
2 4
3 232
3 5
4 113
5 160
6 231
6 8
7 230
7 9
8 97
9 192
10 11
11 112
11 12
12 111
12 13
13 110
13 14
14 109
14 15
15 108
15 16
16 107
16 17
17 106
17 18
18 20
18 19
20 22
20 21
22 32
22 23
23 24
23 27
24 26
24 25
27 28
27 29
27 30
27 31
32 67
32 33
33 64
33 34
34 62
34 63
34 35
35 41
35 36
36 37
36 38
36 39
39 40
41 47
41 42
42 43
42 44
42 45
42 46
47 61
47 48
48 60
48 49
49 115
49 50
50 51
50 58
50 59
51 52
51 53
51 54
54 56
54 57
54 55
64 66
64 65
67 68
68 69
68 80
69 70
69 73
70 71
70 72
73 74
73 75
73 76
76 77
76 78
76 79
80 88
80 81
81 86
81 87
81 82
82 84
82 85
82 83
88 90
88 91
88 89
91 92
91 105
92 94
92 93
94 100
94 95
95 96
95 99
95 98
96 97
100 101
101 104
101 102
101 103
112 113
114 125
114 220
114 116
115 117
115 116
116 225
117 118
117 119
117 124
119 121
119 123
119 120
119 122
125 126
125 170
126 127
126 137
127 128
127 129
127 130
130 136
130 131
130 132
132 134
132 135
132 133
137 165
137 138
138 164
138 139
139 140
139 147
140 146
140 141
140 142
142 143
142 145
142 144
147 148
147 149
149 163
149 162
149 150
150 151
150 152
152 153
152 154
154 155
154 156
156 158
156 157
156 161
158 159
159 160
165 168
165 166
165 169
165 167
170 210
170 171
171 172
171 199
172 198
172 173
173 197
173 174
174 196
174 175
175 176
175 195
175 177
177 178
177 179
179 180
179 181
181 182
181 183
183 194
183 184
184 193
184 186
184 185
186 187
186 188
188 189
189 190
189 191
191 192
199 200
199 205
200 202
200 201
200 203
200 204
205 207
205 206
205 209
205 208
210 212
210 211
210 213
213 214
213 219
213 215
215 218
215 216
215 217
220 224
220 222
220 223
220 221
225 226
225 228
225 229
225 227
